250	1174
264	1062
275	1017
289	905
303	891
314	846
317	779
342	720
356	706
381	647
426	636
431	627
440	622
445	613
454	608
459	599
468	594
473	585
479	549
516	516
552	510
566	496
571	487
580	482
585	473
599	459
605	423
672	420
678	384
745	381
759	367
765	331
832	328
877	317
891	303
905	289
964	264
1076	250
